c ---- [ banner ] ------------------------------------------------------------
c
c Kissat SAT Solver
c 
c Copyright (c) 2021-2024 Armin Biere University of Freiburg
c Copyright (c) 2019-2021 Armin Biere Johannes Kepler University Linz
c 
c Version 4.0.1 43f02cf3e992cb44653b35e5cb26f93281552ae0
c gcc (Ubuntu 13.2.0-23ubuntu4) 13.2.0 -W -Wall -O3 -DNDEBUG
c Thu Sep 12 12:27:46 CEST 2024 Linux abryzen9 6.8.0-41-generic x86_64
c
c ---- [ parsing ] -----------------------------------------------------------
c
c opened and reading DIMACS file:
c
c   /data/artifact/AMulet2.0_artifact/exp4/cnf_sopb_64/64_64_U_SP_CWT_SE_GenMul_sopb.cnf
c
c parsed 'p cnf 32832 137811' header
c closing input after reading 2731512 bytes (3 MB)
c finished parsing after 0.02 seconds
c
c ---- [ options ] -----------------------------------------------------------
c
c --stable=0                       (different from default '1')
c
c ---- [ solving ] -----------------------------------------------------------
c
c  seconds switched rate     size/glue tier1  binary           remaining
c         MB reductions conflicts size  tier2     irredundant
c          level restarts redundant glue  trail           variables
c
c *  0.02 10 0 0 0  0 0   0   0 0.0 0 0 0 0 0% 28448 109361 32829 100%
c (  0.04 12 0 0 0  0 0   0   0 0.0 0 0 0 0 0% 28448 109361 32829 100%
c .  0.05 13 0 0 0  0 0   0   0 0.0 0 0 0 0 0% 28444 109361 32829 100%
c c  0.12 18 0 0 0  0 0   0   0 0.0 0 0 0 0 0% 32842 102533 30641 93%
c d  0.12 18 0 0 0  0 0   0   0 0.0 0 0 0 0 0% 28466 102533 30641 93%
c =  0.17 19 0 0 0  0 0   0   0 0.0 0 0 0 0 0% 28450 102533 30013 91%
c d  0.18 19 0 0 0  0 0   0   0 0.0 0 0 0 0 0% 27194 102533 30013 91%
c f  0.27 19 0 0 0  0 0   0   0 0.0 0 0 0 0 0% 28668 98499 31858 97%
c e  0.40 24 0 0 0  0 0   0   0 0.0 0 0 0 0 0% 21526 103245 23297 71%
c )  0.40 24 0 0 0  0 0   0   0 0.0 0 0 0 0 0% 21526 103245 23297 71%
c {  0.41 25 0 0 0  0 0   0   0 0.0 0 0 2 6 0% 21526 103245 23297 71%
c -  0.53 25 146 0 1 263 30 1001 725 2.3 10 4 3 8 18% 21613 103243 23297 71%
c -  0.73 25 188 0 2 446 36 2003 1414 3.1 15 5 3 8 24% 21662 103240 23297 71%
c c  0.93 23 177 0 2 578 38 2505 1859 3.7 19 5 3 8 25% 22302 101905 22849 70%
c d  0.93 23 177 0 2 578 38 2505 1855 3.7 19 5 3 8 25% 21406 101905 22849 70%
c u  0.95 23 177 0 2 578 38 2505 1392 3.7 19 5 3 8 25% 19645 101905 22849 70%
c v  0.96 23 177 0 2 578 38 2505 1178 3.7 19 5 3 8 25% 19645 101905 22849 70%
c w  0.98 23 177 0 2 578 38 2505 1178 3.7 19 5 3 8 25% 19645 101905 22849 70%
c x  1.00 23 177 0 2 578 38 2505 1177 3.7 19 5 3 8 25% 19744 101691 22849 70%
c =  1.06 23 177 0 2 578 38 2505 1177 3.7 19 5 3 8 25% 19802 101691 22820 70%
c
c  seconds   switched   rate       size/glue tier1    binary           remaining
c         MB  reductions conflicts       size  tier2      irredundant
c           level restarts    redundant    glue   trail           variables
c
c d  1.06 23 177 0 2 578 38 2505 1177 3.7 19 5 3 8 25% 19742 101691 22820 70%
c t  1.07 23 177 0 2 578 38 2505 1177 3.7 19 5 3 8 25% 19727 101691 22820 70%
c f  1.10 24 177 0 2 578 38 2505 1177 3.7 19 5 3 8 25% 21086 98915 23729 72%
c u  1.15 24 177 0 2 578 38 2505 1067 3.7 19 5 3 8 25% 21091 98915 23729 72%
c v  1.16 24 177 0 2 578 38 2505 1018 3.7 19 5 3 8 25% 21091 98915 23729 72%
c w  1.18 24 177 0 2 578 38 2505 1013 3.7 19 5 3 8 25% 21091 98915 23729 72%
c x  1.20 24 177 0 2 578 38 2505 1013 3.7 19 5 3 8 25% 21099 98883 23729 72%
c =  1.26 24 177 0 2 578 38 2505 1013 3.7 19 5 3 8 25% 21907 98875 23325 71%
c d  1.27 24 177 0 2 578 38 2505 1003 3.7 19 5 3 8 25% 21071 98875 23325 71%
c t  1.28 24 177 0 2 578 38 2505 1003 3.7 19 5 3 8 25% 21069 98875 23325 71%
c f  1.30 24 177 0 2 578 38 2505 1003 3.7 19 5 3 8 25% 21229 98346 23512 72%
c -  1.46 24 213 0 3 710 38 3417 1533 3.5 18 5 3 8 26% 21269 98344 23512 72%
c -  1.70 24 256 0 4 874 35 5151 2616 3.2 16 5 3 9 24% 21409 98325 23512 72%
c -  2.10 24 261 0 5 1141 36 7151 3837 3.4 17 5 3 8 24% 21497 98317 23512 72%
c d  2.20 24 251 0 5 1213 35 7713 4334 3.3 17 5 3 8 24% 21499 98317 23505 72%
c u  2.23 24 251 0 5 1213 35 7713 3356 3.3 17 5 3 8 24% 21516 98317 23505 72%
c v  2.26 24 251 0 5 1213 35 7713 3007 3.3 17 5 3 8 24% 21517 98317 23505 72%
c w  2.28 24 251 0 5 1213 35 7713 3000 3.3 17 5 3 8 24% 21517 98317 23505 72%
c =  2.38 24 251 0 5 1213 35 7713 3000 3.3 17 5 3 8 24% 23189 98305 22669 69%
c d  2.39 24 251 0 5 1213 35 7713 2948 3.3 17 5 3 8 24% 21436 98305 22668 69%
c
c  seconds   switched    rate       size/glue tier1    binary          remaining
c         MB  reductions  conflicts       size  tier2      irredundant
c           level  restarts    redundant    glue   trail          variables
c
c t  2.40 24 251 0 5 1213 35 7713 2948 3.3 17 5 3 8 24% 21426 98305 22668 69%
c f  2.44 24 251 0 5 1213 35 7713 2948 3.3 17 5 3 8 24% 21573 97609 22907 70%
c u  2.50 24 251 0 5 1213 35 7713 2729 3.3 17 5 3 8 24% 21576 97609 22907 70%
c v  2.52 24 251 0 5 1213 35 7713 2659 3.3 17 5 3 8 24% 21577 97609 22907 70%
c w  2.53 24 251 0 5 1213 35 7713 2655 3.3 17 5 3 8 24% 21577 97609 22907 70%
c x  2.56 24 251 0 5 1213 35 7713 2655 3.3 17 5 3 8 24% 21586 96803 22907 70%
c =  2.65 24 251 0 5 1213 35 7713 2655 3.3 17 5 3 8 24% 21820 96803 22790 69%
c d  2.65 24 251 0 5 1213 35 7713 2650 3.3 17 5 3 8 24% 21518 96803 22790 69%
c t  2.67 24 251 0 5 1213 35 7713 2650 3.3 17 5 3 8 24% 21507 96803 22790 69%
c f  2.70 24 251 0 5 1213 35 7713 2650 3.3 17 5 3 8 24% 21558 96679 22840 70%
c -  3.02 24 252 0 6 1437 35 9387 3606 3.4 18 5 3 8 25% 21624 96679 22840 70%
c o  3.10 24 253 0 6 1492 34 10021 4156 3.3 18 5 3 8 25% 21666 96671 22840 70%
c -  3.47 24 247 0 7 1671 34 11836 5096 3.5 19 6 3 8 26% 21737 96670 22840 70%
c s  3.71 24 243 0 7 1811 34 12520 5748 3.6 20 6 3 8 27% 21754 89165 22840 70%
c e  3.79 24 243 0 7 1811 34 12520 5748 3.6 20 6 3 8 27% 20137 90596 21483 65%
c s  3.80 24 243 0 7 1811 34 12520 5748 3.6 20 6 3 8 27% 20157 90385 21483 65%
c e  3.81 24 243 0 7 1811 34 12520 5748 3.6 20 6 3 8 27% 20150 90391 21479 65%
c ^  3.81 24 243 0 7 1811 34 12520 5748 3.6 20 6 3 8 27% 20150 90391 21479 65%
c -  4.08 24 255 0 8 1984 34 14481 6344 3.6 20 6 3 8 26% 20245 90384 21479 65%
c d  4.20 24 259 0 8 2064 33 15796 7438 3.5 20 6 3 8 26% 20267 90380 21451 65%
c
c  seconds   switched    rate        size/glue tier1    binary          remaining
c         MB  reductions   conflicts       size  tier2      irredundant
c           level  restarts     redundant    glue   trail          variables
c
c u  4.24 24 259 0 8 2064 33 15796 5942 3.5 20 6 3 8 26% 20285 90380 21451 65%
c v  4.27 24 259 0 8 2064 33 15796 5427 3.5 20 6 3 8 26% 20285 90380 21451 65%
c w  4.30 24 259 0 8 2064 33 15796 5421 3.5 20 6 3 8 26% 20285 90380 21451 65%
c x  4.33 24 259 0 8 2064 33 15796 5420 3.5 20 6 3 8 26% 20311 90176 21451 65%
c =  4.48 24 259 0 8 2064 33 15796 5420 3.5 20 6 3 8 26% 21643 90176 20785 63%
c d  4.49 24 259 0 8 2064 33 15796 5323 3.5 20 6 3 8 26% 20162 90176 20785 63%
c t  4.50 24 259 0 8 2064 33 15796 5323 3.5 20 6 3 8 26% 19948 90176 20785 63%
c f  4.55 24 259 0 8 2064 33 15796 5323 3.5 20 6 3 8 26% 20013 89822 20883 64%
c u  4.60 24 259 0 8 2064 33 15796 4965 3.5 20 6 3 8 26% 20015 89822 20883 64%
c v  4.62 24 259 0 8 2064 33 15796 4866 3.5 20 6 3 8 26% 20015 89822 20883 64%
c w  4.65 24 259 0 8 2064 33 15796 4851 3.5 20 6 3 8 26% 20015 89822 20883 64%
c x  4.69 24 259 0 8 2064 33 15796 4851 3.5 20 6 3 8 26% 20053 87798 20883 64%
c =  4.85 24 259 0 8 2064 33 15796 4851 3.5 20 6 3 8 26% 20809 87790 20505 62%
c d  4.85 24 259 0 8 2064 33 15796 4829 3.5 20 6 3 8 26% 19937 87790 20504 62%
c t  4.87 24 259 0 8 2064 33 15796 4829 3.5 20 6 3 8 26% 19858 87790 20504 62%
c f  4.89 24 259 0 8 2064 33 15796 4829 3.5 20 6 3 8 26% 19867 87655 20542 63%
c -  5.06 24 252 0 9 2155 32 17309 5456 3.4 19 6 3 8 26% 19918 87654 20542 63%
c o  5.32 24 257 0 9 2288 30 20045 7764 3.3 18 6 3 8 26% 20019 87653 20542 63%
c -  5.40 24 256 0 10 2345 31 20309 6840 3.4 19 6 2 8 26% 20028 87653 20542 63%
c -  5.83 24 243 0 11 2702 30 23471 8346 3.4 19 6 2 7 26% 20122 87652 20542 63%
c
c  seconds   switched     rate        size/glue tier1    binary          remaining
c         MB   reductions   conflicts       size  tier2      irredundant
c           level   restarts     redundant    glue   trail          variables
c
c s  6.03 24 241 0 11 2856 30 25024 9704 3.4 19 6 2 7 26% 20167 84924 20542 63%
c e  6.13 24 241 0 11 2856 30 25024 9704 3.4 19 6 2 7 26% 17131 89164 18974 58%
c 2  6.13 24 241 0 11 2856 30 25024 9704 3.4 19 6 2 7 26% 17123 89164 18974 58%
c s  6.14 24 241 0 11 2856 30 25024 9704 3.4 19 6 2 7 26% 17190 88551 18974 58%
c e  6.15 24 241 0 11 2856 30 25024 9704 3.4 19 6 2 7 26% 17103 88652 18933 58%
c ^  6.15 24 241 0 11 2856 30 25024 9704 3.4 19 6 2 7 26% 17103 88652 18933 58%
c -  6.29 24 245 0 12 2944 29 26788 8778 3.3 19 6 2 7 26% 17148 88652 18933 58%
c c  6.37 24 245 0 12 2984 29 26925 8901 3.3 19 6 2 7 26% 17214 88484 18903 58%
c d  6.37 24 245 0 12 2984 29 26925 8874 3.3 19 6 2 7 26% 17118 88484 18882 58%
c u  6.40 24 245 0 12 2984 29 26925 7761 3.3 19 6 2 7 26% 17134 88484 18882 58%
c v  6.44 24 245 0 12 2984 29 26925 6807 3.3 19 6 2 7 26% 17134 88484 18882 58%
c w  6.45 24 245 0 12 2984 29 26925 6803 3.3 19 6 2 7 26% 17134 88484 18882 58%
c x  6.49 24 245 0 12 2984 29 26925 6801 3.3 19 6 2 7 26% 17170 87965 18882 58%
c =  6.67 24 245 0 12 2984 29 26925 6801 3.3 19 6 2 7 26% 20022 87964 17456 53%
c d  6.68 24 245 0 12 2984 29 26925 6631 3.3 19 6 2 7 26% 17121 87964 17454 53%
c t  6.69 24 245 0 12 2984 29 26925 6631 3.3 19 6 2 7 26% 16728 87964 17454 53%
c f  6.74 24 245 0 12 2984 29 26925 6631 3.3 19 6 2 7 26% 16729 87113 17583 54%
c u  6.78 24 245 0 12 2984 29 26925 6210 3.3 19 6 2 7 26% 16733 87113 17583 54%
c v  6.81 24 245 0 12 2984 29 26925 5972 3.3 19 6 2 7 26% 16734 87113 17583 54%
c w  6.82 24 245 0 12 2984 29 26925 5969 3.3 19 6 2 7 26% 16734 87113 17583 54%
c
c  seconds   switched     rate        size/glue tier1    binary          remaining
c         MB   reductions   conflicts       size  tier2      irredundant
c           level   restarts     redundant    glue   trail          variables
c
c x  6.88 24 245 0 12 2984 29 26925 5967 3.3 19 6 2 7 26% 16767 82797 17583 54%
c =  7.02 24 245 0 12 2984 29 26925 5967 3.3 19 6 2 7 26% 17513 82797 17210 52%
c d  7.02 24 245 0 12 2984 29 26925 5936 3.3 19 6 2 7 26% 16754 82797 17210 52%
c t  7.03 24 245 0 12 2984 29 26925 5936 3.3 19 6 2 7 26% 16684 82797 17210 52%
c f  7.06 24 245 0 12 2984 29 26925 5936 3.3 19 6 2 7 26% 16662 82640 17236 52%
c -  7.35 24 238 0 13 3235 29 30252 7858 3.2 18 6 2 7 26% 16742 82638 17236 52%
c -  7.60 24 233 0 14 3464 28 33859 9749 3.1 18 6 2 7 26% 16825 82638 17236 52%
c -  8.01 24 229 0 15 3787 27 37600 11393 3.0 18 6 2 7 26% 16892 82638 17236 52%
c o  8.24 24 225 0 15 3957 27 40133 13629 3.0 17 6 2 7 26% 16938 82637 17236 52%
c c  8.44 24 223 0 15 4100 27 41252 14663 3.0 17 6 2 7 26% 16999 82451 17197 52%
c d  8.45 24 223 0 15 4100 27 41252 14576 3.0 17 6 2 7 26% 16915 82451 17194 52%
c u  8.49 24 223 0 15 4100 27 41252 12488 3.0 17 6 2 7 26% 16916 82451 17194 52%
c v  8.52 24 223 0 15 4100 27 41252 11890 3.0 17 6 2 7 26% 16920 82451 17194 52%
c w  8.54 24 223 0 15 4100 27 41252 11890 3.0 17 6 2 7 26% 16920 82451 17194 52%
c x  8.58 25 223 0 15 4100 27 41252 11890 3.0 17 6 2 7 26% 16920 78528 17194 52%
c =  8.71 25 223 0 15 4100 27 41252 11890 3.0 17 6 2 7 26% 17030 78528 17139 52%
c d  8.72 25 223 0 15 4100 27 41252 11788 3.0 17 6 2 7 26% 16906 78528 17136 52%
c t  8.73 25 223 0 15 4100 27 41252 11788 3.0 17 6 2 7 26% 16847 78528 17136 52%
c f  8.75 25 223 0 15 4100 27 41252 11788 3.0 17 6 2 7 26% 16861 78434 17150 52%
c c  8.79 25 223 0 15 4100 27 41252 11738 3.0 17 6 2 7 26% 16880 78381 17140 52%
c
c  seconds   switched     rate         size/glue tier1    binary          remaining
c         MB   reductions   conflicts        size  tier2      irredundant
c           level   restarts      redundant    glue   trail          variables
c
c d  8.79 25 223 0 15 4100 27 41252 11738 3.0 17 6 2 7 26% 16860 78381 17140 52%
c u  8.83 25 223 0 15 4100 27 41252 11254 3.0 17 6 2 7 26% 16861 78381 17140 52%
c v  8.87 25 223 0 15 4100 27 41252 10255 3.0 17 6 2 7 26% 16862 78381 17140 52%
c w  8.89 25 223 0 15 4100 27 41252 10253 3.0 17 6 2 7 26% 16862 78381 17140 52%
c x  8.92 25 223 0 15 4100 27 41252 10253 3.0 17 6 2 7 26% 16863 76684 17140 52%
c =  9.06 25 223 0 15 4100 27 41252 10253 3.0 17 6 2 7 26% 17283 76684 16930 52%
c d  9.07 25 223 0 15 4100 27 41252 10169 3.0 17 6 2 7 26% 16845 76684 16929 52%
c t  9.08 25 223 0 15 4100 27 41252 10169 3.0 17 6 2 7 26% 16791 76684 16929 52%
c f  9.09 25 223 0 15 4100 27 41252 10169 3.0 17 6 2 7 26% 16794 76546 16948 52%
c -  9.14 25 222 0 16 4118 27 41472 9123 3.0 17 6 2 6 26% 16796 76546 16948 52%
c -  9.46 25 213 0 17 4372 26 45472 11069 2.9 17 6 2 6 26% 16876 76543 16948 52%
c -  9.89 25 210 0 18 4703 25 49597 13111 2.9 17 6 2 6 26% 16944 76543 16948 52%
c s 10.11 25 205 0 18 4899 25 52126 15285 2.8 17 6 2 6 26% 17007 74143 16948 52%
c e 10.18 25 205 0 18 4899 25 52126 15285 2.8 17 6 2 6 26% 15392 76949 16033 49%
c 2 10.18 25 205 0 18 4899 25 52126 15285 2.8 17 6 2 6 26% 15375 76949 16033 49%
c s 10.19 25 205 0 18 4899 25 52126 15285 2.8 17 6 2 6 26% 15391 76618 16033 49%
c e 10.19 25 205 0 18 4899 25 52126 15285 2.8 17 6 2 6 26% 15378 76625 16023 49%
c ^ 10.19 25 205 0 18 4899 25 52126 15285 2.8 17 6 2 6 26% 15378 76625 16023 49%
c - 10.40 25 203 0 19 5064 25 53839 13661 2.8 17 6 2 6 26% 15419 76625 16023 49%
c - 10.91 25 198 0 20 5554 25 58197 15486 2.8 17 6 2 6 26% 15488 76625 16023 49%
c
c  seconds   switched     rate         size/glue tier1    binary          remaining
c         MB   reductions   conflicts        size  tier2      irredundant
c           level   restarts      redundant    glue   trail          variables
c
c d 11.00 25 197 0 20 5629 25 58880 16024 2.8 17 6 2 6 27% 15464 76625 16006 49%
c u 11.05 25 197 0 20 5629 25 58880 13382 2.8 17 6 2 6 27% 15500 76625 16006 49%
c v 11.09 25 197 0 20 5629 25 58880 12068 2.8 17 6 2 6 27% 15502 76625 16006 49%
c w 11.12 25 197 0 20 5629 25 58880 12057 2.8 17 6 2 6 27% 15502 76625 16006 49%
c x 11.16 25 197 0 20 5629 25 58880 12057 2.8 17 6 2 6 27% 15504 76504 16006 49%
c = 11.36 25 197 0 20 5629 25 58880 12057 2.8 17 6 2 6 27% 16864 76504 15326 47%
c d 11.37 25 197 0 20 5629 25 58880 11424 2.8 17 6 2 6 27% 15411 76504 15326 47%
c t 11.38 25 197 0 20 5629 25 58880 11424 2.8 17 6 2 6 27% 15092 76504 15326 47%
c f 11.42 25 197 0 20 5629 25 58880 11424 2.8 17 6 2 6 27% 15236 75885 15405 47%
c c 11.46 25 197 0 20 5629 25 58880 11421 2.8 17 6 2 6 27% 15243 75869 15403 47%
c d 11.46 25 197 0 20 5629 25 58880 11421 2.8 17 6 2 6 27% 15239 75869 15403 47%
c u 11.51 25 197 0 20 5629 25 58880 10551 2.8 17 6 2 6 27% 15246 75869 15403 47%
c v 11.54 25 197 0 20 5629 25 58880 10055 2.8 17 6 2 6 27% 15246 75869 15403 47%
c w 11.56 25 197 0 20 5629 25 58880 10036 2.8 17 6 2 6 27% 15246 75869 15403 47%
c = 11.78 25 197 0 20 5629 25 58880 10036 2.8 17 6 2 6 27% 15674 75865 15189 46%
c d 11.79 25 197 0 20 5629 25 58880 10011 2.8 17 6 2 6 27% 15236 75865 15189 46%
c t 11.80 25 197 0 20 5629 25 58880 10011 2.8 17 6 2 6 27% 15163 75865 15189 46%
c f 11.81 25 197 0 20 5629 25 58880 10011 2.8 17 6 2 6 27% 15191 75716 15209 46%
c - 12.24 25 196 0 21 5993 25 62670 12074 2.8 17 6 2 6 27% 15237 75716 15209 46%
c - 12.69 25 195 0 22 6400 25 67253 14508 2.9 17 6 2 6 27% 15304 75714 15209 46%
c
c  seconds   switched     rate         size/glue tier1    binary          remaining
c         MB   reductions   conflicts        size  tier2      irredundant
c           level   restarts      redundant    glue   trail          variables
c
c o 12.94 25 192 0 22 6603 24 70181 17180 2.8 17 6 2 6 27% 15348 75713 15209 46%
c - 13.13 25 191 0 23 6770 24 71943 16491 2.8 17 6 2 6 27% 15369 75713 15209 46%
c - 13.67 25 186 0 24 7282 24 76739 18195 2.8 17 6 2 6 28% 15424 75712 15209 46%
c d 14.25 25 183 0 24 7825 24 79937 21103 2.8 18 6 2 6 28% 15435 75710 15195 46%
c u 14.31 25 183 0 24 7825 24 79937 17928 2.8 18 6 2 6 28% 15454 75710 15195 46%
c v 14.36 25 183 0 24 7825 24 79937 16975 2.8 18 6 2 6 28% 15454 75710 15195 46%
c w 14.40 25 183 0 24 7825 24 79937 16975 2.8 18 6 2 6 28% 15454 75710 15195 46%
c x 14.45 25 183 0 24 7825 24 79937 16950 2.8 18 6 2 6 28% 15624 71716 15195 46%
c d 14.48 25 183 0 24 7825 24 79937 16949 2.8 18 6 2 6 28% 15620 71716 15193 46%
c t 14.49 25 183 0 24 7825 24 79937 16949 2.8 18 6 2 6 28% 15535 71716 15193 46%
c u 14.56 25 183 0 24 7825 24 79937 16019 2.8 18 6 2 6 28% 15540 71716 15193 46%
c v 14.62 25 183 0 24 7825 24 79937 14859 2.8 18 6 2 6 28% 15541 71716 15193 46%
c w 14.67 25 183 0 24 7825 24 79937 14859 2.8 18 6 2 6 28% 15541 71716 15193 46%
c x 14.73 25 183 0 24 7825 24 79937 14855 2.8 18 6 2 6 28% 15609 70503 15193 46%
c t 14.75 25 183 0 24 7825 24 79937 14855 2.8 18 6 2 6 28% 15583 70503 15193 46%
c - 15.09 25 182 0 25 8135 24 81637 14514 2.9 19 6 2 5 28% 15599 70503 15193 46%
c - 15.54 25 182 0 26 8544 24 86638 16956 2.9 19 6 2 5 28% 15683 70500 15193 46%
c - 16.15 25 180 0 27 9059 24 91737 19243 2.9 19 7 2 5 28% 15736 70500 15193 46%
c s 16.59 25 177 0 27 9351 23 95786 22924 2.9 19 7 2 5 28% 15793 69510 15193 46%
c e 16.71 25 177 0 27 9351 23 95786 22924 2.9 19 7 2 5 28% 12354 79811 13102 40%
c
c  seconds   switched     rate         size/glue tier1    binary          remaining
c         MB   reductions   conflicts        size  tier2      irredundant
c           level   restarts      redundant    glue   trail          variables
c
c 2 16.71 25 177 0 27 9351 23 95786 22924 2.9 19 7 2 5 28% 12344 79811 13102 40%
c s 16.73 25 177 0 27 9351 23 95786 22924 2.9 19 7 2 5 28% 12386 78564 13102 40%
c e 16.76 25 177 0 27 9351 23 95786 22924 2.9 19 7 2 5 28% 12301 78723 13076 40%
c ^ 16.76 25 177 0 27 9351 23 95786 22924 2.9 19 7 2 5 28% 12301 78723 13076 40%
c - 17.02 25 176 0 28 9503 23 96933 15651 2.9 19 7 2 5 28% 12307 78723 13076 40%
c - 17.96 25 173 0 29 10089 23 102224 18444 2.9 19 7 2 5 29% 12350 78723 13076 40%
c c 18.51 25 172 0 29 10366 23 104556 20560 2.9 20 7 2 5 29% 12390 78602 13057 40%
c d 18.51 25 172 0 29 10366 23 104556 20509 2.9 20 7 2 5 29% 12352 78602 13057 40%
c u 18.58 25 172 0 29 10366 23 104556 17618 2.9 20 7 2 5 29% 12380 78602 13057 40%
c v 18.64 25 172 0 29 10366 23 104556 15871 2.9 20 7 2 5 29% 12382 78602 13057 40%
c w 18.71 25 172 0 29 10366 23 104556 15855 2.9 20 7 2 5 29% 12382 78602 13057 40%
c x 18.78 25 172 0 29 10366 23 104556 15847 2.9 20 7 2 5 29% 12409 78114 13057 40%
c = 19.17 25 172 0 29 10366 23 104556 15847 2.9 20 7 2 5 29% 12600 78039 12956 39%
c d 19.18 25 172 0 29 10366 23 104556 15736 2.9 20 7 2 5 29% 12395 78039 12956 39%
c t 19.19 25 172 0 29 10366 23 104556 15736 2.9 20 7 2 5 29% 12297 78039 12956 39%
c f 19.28 25 172 0 29 10366 23 104556 15736 2.9 20 7 2 5 29% 12307 77938 12965 39%
c u 19.34 25 172 0 29 10366 23 104556 14989 2.9 20 7 2 5 29% 12317 77938 12965 39%
c v 19.38 25 172 0 29 10366 23 104556 14593 2.9 20 7 2 5 29% 12317 77938 12965 39%
c w 19.46 25 172 0 29 10366 23 104556 14297 2.9 20 7 2 5 29% 12317 77938 12965 39%
c x 19.54 25 172 0 29 10366 23 104556 14290 2.9 20 7 2 5 29% 12453 76698 12965 39%
c
c  seconds   switched      rate          size/glue tier1    binary          remaining
c         MB   reductions    conflicts         size  tier2      irredundant
c           level   restarts        redundant    glue   trail          variables
c
c = 19.94 25 172 0 29 10366 23 104556 14290 2.9 20 7 2 5 29% 12541 76630 12913 39%
c d 19.94 25 172 0 29 10366 23 104556 14275 2.9 20 7 2 5 29% 12450 76630 12913 39%
c t 19.95 25 172 0 29 10366 23 104556 14275 2.9 20 7 2 5 29% 12393 76630 12913 39%
c i 19.98 25 172 0 29 10388 23 104787 14466 2.9 20 7 2 5 29% 12403 76629 12912 39%
c - 20.29 25 173 0 30 10585 23 107609 15343 2.9 20 7 2 5 29% 12400 76629 12912 39%
c o 20.61 25 172 0 30 10813 23 110265 17852 2.9 19 7 2 5 29% 12414 76629 12912 39%
c - 20.96 25 170 0 31 11094 23 113087 18155 2.9 20 7 2 5 30% 12438 76627 12912 39%
c - 21.85 25 169 0 32 11732 23 118654 20643 2.9 20 7 2 5 30% 12462 76627 12912 39%
c i 22.01 25 168 0 32 11849 23 119756 21631 2.9 20 7 2 5 30% 12466 76627 12911 39%
c i 22.10 25 168 0 32 11902 23 120519 22335 2.9 20 7 2 5 30% 12474 76626 12909 39%
c i 22.11 25 168 0 32 11903 23 120529 22333 2.9 20 7 2 5 30% 12477 76626 12908 39%
c i 22.14 25 167 0 32 11922 23 120884 22639 2.9 20 7 2 5 30% 12484 76626 12906 39%
c i 22.19 25 166 0 32 11954 23 121571 23247 2.9 20 7 2 5 30% 12489 76626 12905 39%
c i 22.32 25 166 0 32 12028 23 122748 24320 2.9 20 7 2 5 30% 12502 76625 12904 39%
c i 22.48 25 165 0 32 12148 23 123890 25385 2.9 20 7 2 5 30% 12509 76624 12903 39%
c i 22.49 25 165 0 32 12157 23 124029 25507 2.9 20 7 2 5 30% 12512 76624 12902 39%
c - 22.53 25 165 0 33 12186 23 124310 20689 2.9 20 7 1 5 30% 12496 76623 12902 39%
c i 22.58 25 165 0 33 12231 23 124610 20957 2.9 20 7 1 5 30% 12503 76623 12900 39%
c i 22.61 25 164 0 33 12254 23 124738 21070 2.9 20 7 1 5 30% 12505 76623 12899 39%
c i 22.75 25 163 0 33 12346 22 126222 22425 2.9 20 7 1 5 30% 12516 76623 12896 39%
c
c  seconds   switched      rate          size/glue tier1    binary          remaining
c         MB   reductions    conflicts         size  tier2      irredundant
c           level   restarts        redundant    glue   trail          variables
c
c i 22.85 25 162 0 33 12423 22 127039 23154 2.9 20 7 1 5 30% 12522 76623 12895 39%
c - 23.22 25 160 0 34 12653 22 130054 21026 2.8 20 7 1 5 30% 12536 76621 12895 39%
c i 23.24 25 160 0 34 12663 22 130137 21103 2.8 20 7 1 5 30% 12537 76621 12893 39%
c i 23.31 25 160 0 34 12727 22 131032 21917 2.8 20 7 1 5 30% 12548 76621 12891 39%
c c 23.51 25 158 0 34 12800 22 132794 23502 2.8 20 7 1 5 30% 12552 76465 12885 39%
c d 23.51 25 158 0 34 12800 22 132794 23339 2.8 20 7 1 5 30% 12581 76426 12885 39%
c d 23.52 25 158 0 34 12800 22 132794 23328 2.8 20 7 1 5 30% 12544 76425 12866 39%
c u 23.56 25 158 0 34 12800 22 132794 21442 2.8 20 7 1 5 30% 12551 76425 12866 39%
c v 23.66 25 158 0 34 12800 22 132794 17697 2.8 20 7 1 5 30% 12560 76425 12866 39%
c w 23.70 25 158 0 34 12800 22 132794 17589 2.8 20 7 1 5 30% 12561 76425 12866 39%
c x 23.81 25 158 0 34 12800 22 132794 17582 2.8 20 7 1 5 30% 12608 75829 12866 39%
c = 24.26 25 158 0 34 12800 22 132794 17582 2.8 20 7 1 5 30% 12656 75777 12835 39%
c d 24.26 25 158 0 34 12800 22 132794 17500 2.8 20 7 1 5 30% 12598 75776 12835 39%
c t 24.28 25 158 0 34 12800 22 132794 17500 2.8 20 7 1 5 30% 12537 75776 12835 39%
c u 24.33 25 158 0 34 12800 22 132794 17086 2.8 20 7 1 5 30% 12539 75776 12835 39%
c v 24.39 25 158 0 34 12800 22 132794 16271 2.8 20 7 1 5 30% 12541 75776 12835 39%
c w 24.45 25 158 0 34 12800 22 132794 15931 2.8 20 7 1 5 30% 12541 75776 12835 39%
c x 24.54 25 158 0 34 12800 22 132794 15925 2.8 20 7 1 5 30% 12541 75338 12835 39%
c t 25.11 25 158 0 34 12800 22 132794 15925 2.8 20 7 1 5 30% 12540 75338 12835 39%
c i 25.23 25 156 0 34 12921 21 134790 17740 2.8 20 7 1 5 30% 12566 75337 12834 39%
c
c  seconds   switched      rate          size/glue tier1    binary          remaining
c         MB   reductions    conflicts         size  tier2      irredundant
c           level   restarts        redundant    glue   trail          variables
c
c i 25.25 25 155 0 34 12942 21 135459 18299 2.8 19 7 1 5 30% 12584 75337 12833 39%
c - 25.26 25 154 0 35 12951 21 135886 16749 2.8 19 7 2 5 29% 12560 75337 12833 39%
c i 25.26 25 154 0 35 12964 21 136107 16950 2.8 19 7 2 5 29% 12562 75337 12832 39%
c i 25.26 25 154 0 35 12967 21 136117 16957 2.8 19 7 2 5 29% 12564 75337 12831 39%
c i 25.27 25 153 0 35 12971 21 136511 17243 2.8 19 7 2 5 29% 12577 75337 12830 39%
c i 25.28 25 153 0 35 12976 21 136771 17435 2.8 19 7 2 5 29% 12589 75337 12829 39%
c i 25.28 25 153 0 35 12976 21 136776 17438 2.8 19 7 2 5 29% 12589 75337 12827 39%
c i 25.28 25 153 0 35 12976 21 136801 17446 2.8 19 7 2 5 29% 12594 75337 12821 39%
c i 25.28 25 153 0 35 12976 21 136811 17447 2.8 19 7 2 5 29% 12597 75337 12820 39%
c i 25.28 25 153 0 35 12976 21 136815 17448 2.8 19 7 2 5 29% 12599 75337 12813 39%
c i 25.28 25 153 0 35 12976 21 136816 17448 2.8 19 7 2 5 29% 12599 75337 12794 39%
c } 25.28 25 153 0 35 12976 21 136819 17448 2.8 19 7 2 5 29% 12600 75337 12750 39%
c 0 25.28 25 153 0 35 12976 21 136819 17448 2.8 19 7 2 5 29% 12600 75337 12750 39%
c
c ---- [ result ] ------------------------------------------------------------
c
s UNSATISFIABLE
c
c ---- [ profiling ] ---------------------------------------------------------
c
c          16.79   66.43 %  search
c          16.79   66.43 %  focused
c           8.07   31.93 %  simplify
c           7.76   30.69 %  probe
c           3.50   13.83 %  sweep
c           2.69   10.65 %  vivify
c           0.59    2.35 %  factor
c           0.54    2.13 %  eliminate
c           0.42    1.64 %  congruence
c           0.38    1.50 %  substitute
c           0.36    1.42 %  preprocess
c           0.16    0.65 %  reduce
c           0.13    0.50 %  fastel
c           0.13    0.50 %  transitive
c           0.10    0.40 %  subsume
c           0.05    0.21 %  backbone
c           0.03    0.12 %  lucky
c           0.02    0.09 %  parse
c =============================================
c          25.28  100.00 %  total
c
c ---- [ statistics ] --------------------------------------------------------
c
c chronological:                         4990                4 %  conflicts
c conflicts:                           136819             5412.34 per second
c congruent:                             2742                8 %  variables
c decisions:                          2944295               21.52 per conflict
c eliminated:                           14573               44 %  variables
c factored:                              3662               11 %  variables
c fast_eliminated:                       8561               59 %  eliminated
c fast_strengthened:                      108                5 %  per strengthened
c fast_subsumed:                          187                1 %  per subsumed
c iterations:                              27                0 %  variables
c propagations:                     140015882          5538803    per second
c reductions:                              35             3909    interval
c reordered:                                5            27364    interval
c restarts:                             12976               11    interval
c strengthened:                          2059                0 %  checks
c substituted:                           9037               28 %  variables
c subsumed:                             16050                1 %  checks
c switched:                                 0                0    interval
c vivified:                             79301               14 %  checks
c
c ---- [ glue usage ] --------------------------------------------------------
c
c focused glue 2 used 73024 clauses 23.18% accumulated 72.93% tier1
c focused glue 3 used 33808 clauses 10.73% accumulated 83.66%
c focused glue 4 used 14715 clauses  4.67% accumulated 88.33%
c focused glue 5 used  9200 clauses  2.92% accumulated 91.25% tier2
c
c ---- [ resources ] ---------------------------------------------------------
c
c maximum-resident-set-size:         26660864 bytes         25 MB
c process-time:                            25s              25.28 seconds
c
c ---- [ shutting down ] -----------------------------------------------------
c
c exit 20
